(declare-fun var0 () String)
(assert (str.in.re var0 (re.++ (re.+ (re.* (str.to.re "UUU"))) (re.++ (re.+ (re.union (str.to.re "SS") (str.to.re "TTT"))) (re.++ (re.* (re.union (str.to.re "Q") (str.to.re "RR"))) (re.++ (re.+ (re.+ (str.to.re "PP"))) (re.++ (re.union (re.* (str.to.re "NN")) (re.+ (str.to.re "OO"))) (re.++ (re.+ (re.+ (str.to.re "MMM"))) (re.++ (re.* (re.union (str.to.re "K") (str.to.re "LL"))) (re.++ (re.union (re.* (str.to.re "I")) (re.+ (str.to.re "JJJ"))) (re.++ (re.+ (re.union (str.to.re "GG") (str.to.re "HH"))) (re.++ (re.+ (re.+ (str.to.re "F"))) (re.++ (re.+ (re.* (str.to.re "EEE"))) (re.++ (re.+ (re.+ (str.to.re "DDD"))) (re.++ (re.+ (re.* (str.to.re "CC"))) (re.++ (re.+ (re.union (str.to.re "AA") (str.to.re "BB"))) (re.++ (re.* (re.* (str.to.re "z"))) (re.++ (re.* (re.union (str.to.re "x") (str.to.re "yy"))) (re.++ (re.union (re.* (str.to.re "uuu")) (re.union (str.to.re "v") (str.to.re "w"))) (re.++ (re.* (re.+ (str.to.re "ttt"))) (re.++ (re.* (re.* (str.to.re "ss"))) (re.++ (re.* (re.+ (str.to.re "rr"))) (re.++ (re.union (re.+ (str.to.re "pp")) (re.* (str.to.re "q"))) (re.++ (re.+ (re.+ (str.to.re "oo"))) (re.++ (re.+ (re.+ (str.to.re "n"))) (re.++ (re.+ (re.union (str.to.re "lll") (str.to.re "mmm"))) (re.++ (re.* (re.union (str.to.re "jjj") (str.to.re "kk"))) (re.++ (re.union (re.* (str.to.re "ggg")) (re.union (str.to.re "hhh") (str.to.re "i"))) (re.++ (re.+ (re.+ (str.to.re "f"))) (re.++ (re.* (re.union (str.to.re "dd") (str.to.re "eee"))) (re.++ (re.* (re.union (str.to.re "b") (str.to.re "cc"))) (re.++ (re.* (re.+ (str.to.re "a"))) (re.++ (re.* (re.* (str.to.re "99"))) (re.++ (re.+ (re.union (str.to.re "7") (str.to.re "888"))) (re.++ (re.+ (re.+ (str.to.re "666"))) (re.++ (re.union (re.union (str.to.re "22") (str.to.re "333")) (re.union (str.to.re "4") (str.to.re "555"))) (re.++ (re.* (re.* (str.to.re "111"))) (re.+ (re.* (str.to.re "00"))))))))))))))))))))))))))))))))))))))))
(assert (not (str.in.re var0 (re.++ (re.* (re.+ (str.to.re "%%%"))) (re.++ (re.union (re.+ (str.to.re "##")) (re.+ (str.to.re "$$"))) (re.++ (re.union (re.+ (str.to.re "ZZ")) (re.union (str.to.re "!!!") (str.to.re """"))) (re.++ (re.* (re.+ (str.to.re "YYY"))) (re.++ (re.+ (re.+ (str.to.re "X"))) (re.++ (re.* (re.+ (str.to.re "WWW"))) (re.++ (re.+ (re.+ (str.to.re "VV"))) (re.++ (re.* (re.union (str.to.re "TT") (str.to.re "UU"))) (re.++ (re.* (re.+ (str.to.re "SS"))) (re.++ (re.+ (re.+ (str.to.re "RRR"))) (re.++ (re.+ (re.union (str.to.re "PP") (str.to.re "QQQ"))) (re.++ (re.* (re.union (str.to.re "NNN") (str.to.re "OOO"))) (re.++ (re.union (re.+ (str.to.re "L")) (re.* (str.to.re "M"))) (re.++ (re.* (re.+ (str.to.re "KK"))) (re.++ (re.+ (re.+ (str.to.re "JJ"))) (re.++ (re.* (re.* (str.to.re "III"))) (re.++ (re.union (re.union (str.to.re "EEE") (str.to.re "FFF")) (re.union (str.to.re "GGG") (str.to.re "HH"))) (re.++ (re.* (re.union (str.to.re "CCC") (str.to.re "D"))) (re.++ (re.union (re.* (str.to.re "AA")) (re.+ (str.to.re "B"))) (re.++ (re.union (re.union (str.to.re "ww") (str.to.re "xx")) (re.union (str.to.re "yy") (str.to.re "z"))) (re.++ (re.union (re.union (str.to.re "t") (str.to.re "u")) (re.+ (str.to.re "vvv"))) (re.++ (re.+ (re.union (str.to.re "rrr") (str.to.re "ss"))) (re.++ (re.union (re.* (str.to.re "ppp")) (re.+ (str.to.re "qq"))) (re.++ (re.union (re.* (str.to.re "mmm")) (re.union (str.to.re "nn") (str.to.re "oo"))) (re.++ (re.+ (re.* (str.to.re "ll"))) (re.++ (re.union (re.+ (str.to.re "i")) (re.union (str.to.re "j") (str.to.re "k"))) (re.++ (re.union (re.* (str.to.re "g")) (re.+ (str.to.re "hh"))) (re.++ (re.union (re.union (str.to.re "ccc") (str.to.re "ddd")) (re.union (str.to.re "e") (str.to.re "fff"))) (re.++ (re.union (re.+ (str.to.re "aaa")) (re.+ (str.to.re "bb"))) (re.++ (re.union (re.+ (str.to.re "88")) (re.* (str.to.re "999"))) (re.++ (re.union (re.+ (str.to.re "6")) (re.+ (str.to.re "77"))) (re.++ (re.+ (re.+ (str.to.re "5"))) (re.++ (re.* (re.+ (str.to.re "4"))) (re.++ (re.+ (re.union (str.to.re "22") (str.to.re "33"))) (re.++ (re.+ (re.+ (str.to.re "111"))) (re.* (re.* (str.to.re "0")))))))))))))))))))))))))))))))))))))))))
(check-sat)